% seed = 0

mint = 35;
% maxt = 191;

nActs = 92;
dur = [0,5,4,2,2,2,2,2,1,1,2,3,2,3,3,1,2,2,1,1,2,4,4,2,6,1,1,2,3,2,2,2,4,3,4,3,2,2,1,2,2,2,3,2,1,2,2,2,1,1,2,1,2,1,3,3,2,3,3,1,4,4,1,2,1,2,1,1,3,3,2,3,1,1,1,1,3,2,1,1,2,3,1,2,1,2,3,1,2,2,2,0];

nSkills = 15;
sreq = [| 0,0,0,0,0,0,0,0,0,0,0,0,0,0,0,
	| 0,0,0,1,0,0,0,0,0,0,1,1,0,1,0,
	| 0,0,0,0,0,0,0,1,1,0,0,1,0,0,1,
	| 0,0,2,1,1,0,0,0,0,0,0,0,0,0,0,
	| 0,0,0,0,0,0,0,0,1,0,0,0,0,1,0,
	| 0,0,0,0,1,0,0,0,0,0,0,0,0,0,0,
	| 1,0,0,0,1,1,0,0,0,1,0,0,1,0,0,
	| 0,0,0,0,0,0,0,0,0,1,0,1,0,0,0,
	| 0,0,1,0,0,1,0,0,0,1,0,0,0,0,0,
	| 1,0,0,0,0,0,0,0,1,0,0,0,0,1,0,
	| 0,0,0,0,0,0,0,0,1,1,2,0,0,1,0,
	| 0,0,1,0,0,0,0,0,2,0,0,0,0,0,0,
	| 1,0,1,0,0,0,0,0,1,0,0,1,1,1,0,
	| 0,0,0,0,0,0,0,0,0,0,0,0,1,0,0,
	| 0,0,0,0,0,0,0,0,1,0,0,0,1,0,0,
	| 0,0,1,1,0,0,0,0,1,0,0,0,0,1,1,
	| 0,0,0,0,0,1,0,0,0,0,1,0,1,1,0,
	| 0,0,0,0,1,1,0,0,1,0,0,0,0,0,0,
	| 0,0,0,0,0,0,0,0,1,0,1,1,1,0,0,
	| 1,0,0,0,0,0,0,0,0,0,0,0,0,1,1,
	| 0,0,0,0,0,0,0,1,1,0,0,0,0,1,0,
	| 1,0,0,0,0,0,0,0,0,0,0,0,0,0,0,
	| 0,0,0,0,0,0,0,0,0,0,0,1,0,1,0,
	| 0,0,0,0,0,0,0,0,0,0,0,1,0,1,0,
	| 0,0,0,0,1,1,1,0,2,0,0,0,0,0,0,
	| 0,0,0,0,0,0,0,2,0,0,1,2,0,1,1,
	| 0,0,0,1,0,0,0,1,1,0,1,1,2,0,0,
	| 0,0,0,0,0,0,0,0,0,0,1,0,0,0,0,
	| 0,1,0,0,0,0,0,2,2,0,1,0,1,1,0,
	| 0,0,0,0,0,0,0,0,0,0,0,0,1,0,0,
	| 0,1,0,0,1,0,0,1,1,0,0,1,1,0,0,
	| 0,0,1,0,0,2,0,0,1,0,0,1,0,2,0,
	| 0,1,0,1,0,0,0,0,0,0,0,3,0,0,0,
	| 0,1,0,0,1,1,0,0,1,0,0,1,2,1,0,
	| 0,0,0,2,1,1,0,0,1,0,1,0,0,1,1,
	| 1,0,0,1,0,0,0,0,0,0,0,0,0,0,0,
	| 1,0,1,0,1,0,1,0,1,0,0,0,0,0,0,
	| 0,1,0,0,0,0,0,0,1,0,0,0,0,1,1,
	| 0,0,0,1,1,1,0,0,2,0,0,0,0,2,1,
	| 0,0,1,1,0,0,0,0,0,0,0,0,1,0,0,
	| 0,0,0,0,0,0,0,0,0,0,0,0,0,2,0,
	| 0,1,0,0,0,0,0,0,0,0,0,1,0,0,0,
	| 0,0,1,0,0,0,1,0,1,0,0,1,2,0,0,
	| 0,0,0,0,0,0,0,1,0,0,0,0,0,1,0,
	| 0,0,0,0,0,0,0,0,1,0,0,0,1,0,0,
	| 0,0,0,0,0,0,0,0,0,0,0,1,1,0,0,
	| 0,0,1,0,0,0,0,0,1,0,0,0,0,0,0,
	| 0,0,0,0,0,1,0,0,1,1,1,0,1,0,1,
	| 0,0,0,0,1,0,0,0,0,0,0,0,0,0,0,
	| 0,0,0,0,0,0,0,0,0,0,0,0,0,1,0,
	| 0,1,0,0,1,0,0,0,0,0,0,0,1,2,1,
	| 0,0,0,0,0,0,1,0,1,0,0,0,0,1,0,
	| 0,0,0,0,1,0,0,0,2,0,1,1,1,1,1,
	| 0,1,1,1,0,0,0,0,1,0,1,1,1,0,0,
	| 0,0,0,0,0,0,1,0,0,1,0,0,0,0,0,
	| 0,0,1,0,2,1,0,0,1,0,1,0,0,1,0,
	| 0,0,0,0,0,0,0,0,0,0,0,1,0,0,0,
	| 0,0,0,0,0,1,0,0,0,0,1,0,0,0,0,
	| 0,0,0,0,0,0,0,0,0,0,1,0,0,0,0,
	| 0,0,0,0,0,0,0,0,1,0,0,1,1,0,0,
	| 0,0,1,1,1,0,0,0,1,0,0,0,2,0,0,
	| 0,0,2,0,0,1,0,0,2,0,0,0,0,1,1,
	| 0,0,1,0,0,0,0,1,0,0,0,2,0,2,0,
	| 1,0,1,0,1,0,0,0,0,0,0,1,1,1,0,
	| 0,0,0,0,1,0,0,0,0,0,0,0,1,0,0,
	| 0,0,0,0,0,1,0,0,2,0,0,1,2,0,0,
	| 0,0,0,0,0,1,0,0,0,0,2,0,0,2,1,
	| 0,0,1,1,0,0,0,1,0,0,0,0,0,0,0,
	| 0,0,0,0,0,0,0,0,0,0,0,1,0,0,0,
	| 0,1,0,0,0,0,0,0,1,0,0,0,0,0,0,
	| 0,0,2,0,1,0,0,1,1,0,0,0,1,2,0,
	| 0,0,0,0,1,2,0,0,0,0,0,1,0,0,1,
	| 0,0,0,0,0,0,0,0,0,0,1,1,0,2,0,
	| 0,0,0,0,0,0,0,0,1,0,0,0,0,0,1,
	| 1,1,1,0,1,0,0,0,0,0,0,1,1,0,1,
	| 0,0,0,0,0,1,0,0,0,0,0,1,0,0,0,
	| 0,0,0,0,0,0,0,0,1,0,0,0,0,0,0,
	| 0,0,1,0,0,1,0,0,0,0,0,0,0,0,0,
	| 0,0,1,0,0,0,0,1,3,0,1,0,1,0,1,
	| 0,0,0,1,0,0,0,0,2,0,0,0,1,2,0,
	| 0,0,1,0,0,1,0,0,0,0,0,0,3,1,1,
	| 0,0,1,0,0,1,0,0,1,0,0,0,1,2,0,
	| 0,0,0,1,1,0,0,0,0,0,0,0,0,2,0,
	| 0,0,0,1,0,0,0,0,0,1,0,1,0,2,0,
	| 0,0,0,0,0,0,0,1,0,0,0,0,0,0,0,
	| 0,0,1,0,0,0,0,1,1,0,1,0,0,0,0,
	| 0,0,2,0,1,0,0,0,1,1,1,0,0,0,0,
	| 0,0,0,1,1,0,0,0,1,0,1,0,0,0,0,
	| 0,0,1,0,0,0,0,0,1,0,0,0,1,0,1,
	| 0,0,0,0,0,0,0,0,0,0,1,0,1,1,0,
	| 0,0,0,1,0,0,0,0,0,0,0,1,1,0,0,
	| 0,0,0,0,0,0,0,0,0,0,0,0,0,0,0, |];

% SumOfsreq = 360;

nResources = 24;
mastery = [| false,false,false,false,false,false,false,false,false,true,true,true,false,false,false,
	| false,false,false,true,true,true,false,false,false,false,false,false,false,false,false,
	| false,false,false,false,false,false,false,false,false,false,false,false,true,true,true,
	| false,false,false,true,true,true,false,false,false,false,false,false,false,false,false,
	| false,false,false,true,true,true,false,false,false,false,false,false,false,false,false,
	| false,true,true,false,false,false,false,false,false,false,false,false,false,false,false,
	| false,false,false,false,false,false,false,true,true,false,false,false,false,false,false,
	| false,false,false,false,false,false,false,false,false,false,true,true,false,false,false,
	| false,false,false,false,false,false,false,false,true,false,false,false,false,false,false,
	| false,false,false,false,false,false,false,false,false,true,true,true,true,true,true,
	| false,false,false,false,false,false,false,false,false,true,true,true,false,false,false,
	| false,false,false,false,false,false,false,false,false,false,false,false,false,true,true,
	| false,false,true,false,false,false,false,false,false,false,false,false,false,false,false,
	| false,false,false,false,false,false,false,false,false,false,false,false,true,true,true,
	| false,false,false,false,false,false,false,false,false,false,false,false,true,true,true,
	| false,false,false,false,false,false,false,true,true,false,false,false,false,false,false,
	| false,false,false,false,false,false,false,false,true,false,false,false,false,false,false,
	| false,false,false,false,false,true,false,false,false,false,false,false,false,false,false,
	| false,false,false,false,false,false,true,true,true,false,false,false,false,false,false,
	| false,false,false,false,false,false,false,false,false,false,false,false,true,true,true,
	| false,false,false,false,false,false,false,false,false,false,false,false,false,false,true,
	| true,true,true,false,false,false,false,false,false,false,false,false,false,false,false,
	| false,false,true,true,true,true,false,false,true,false,false,false,false,true,true,
	| false,false,false,false,false,false,false,false,false,false,false,false,false,false,true, |];

nPrecs = 166;
pred = [1,1,1,2,2,2,3,3,3,4,5,5,5,6,6,6,7,7,7,8,8,8,9,9,10,10,10,11,11,11,12,12,13,13,14,14,14,15,15,16,16,16,17,17,18,18,18,19,19,20,21,22,22,22,23,24,24,24,25,25,25,26,26,27,27,28,28,29,29,30,30,31,31,32,32,33,33,33,34,34,35,36,37,37,37,38,39,40,40,41,41,41,42,42,42,43,44,45,45,45,46,46,47,48,48,49,50,51,51,51,52,52,53,54,54,55,55,56,57,57,58,58,59,60,60,61,62,62,63,64,64,65,66,67,67,68,68,69,69,69,70,71,72,73,74,74,75,76,77,78,78,79,80,81,81,82,82,83,84,85,86,87,88,89,90,91];
succ = [2,3,4,62,14,16,9,5,6,61,10,7,8,88,40,32,41,12,32,25,13,15,33,47,17,11,22,28,18,20,25,15,30,72,85,19,21,38,46,51,59,30,76,64,26,52,24,74,27,23,81,33,44,36,50,42,35,29,89,54,39,66,75,49,28,59,31,54,86,34,63,76,39,42,39,43,60,38,43,45,37,83,73,71,47,72,68,49,56,82,68,53,70,63,48,50,55,74,47,56,49,69,69,68,56,72,80,57,66,73,58,64,71,70,79,69,63,83,85,78,62,78,87,65,61,77,91,77,79,66,80,67,84,75,70,73,79,75,77,80,90,74,82,91,90,76,81,86,85,81,84,91,84,82,86,90,83,89,88,87,87,88,89,92,92,92];

nUnrels = 2738;
unpred = [2,2,2,2,2,2,2,2,2,2,2,2,2,2,2,2,2,2,2,2,2,2,2,2,2,2,2,2,2,2,2,2,2,2,2,2,2,2,2,2,2,2,2,2,2,3,3,3,3,3,3,3,3,4,4,4,4,4,4,4,4,4,4,4,4,4,4,4,4,4,4,4,4,4,4,4,4,4,4,4,4,4,4,4,4,4,4,4,4,4,4,4,4,4,4,4,4,4,4,4,4,4,4,4,4,4,4,4,4,4,4,4,4,4,4,4,4,4,4,4,4,4,4,4,4,4,4,4,4,4,4,4,4,4,5,5,5,5,5,5,5,5,5,5,6,6,6,6,6,6,6,6,6,6,6,6,6,6,6,6,6,6,6,6,6,6,6,6,6,6,6,6,6,6,6,6,6,6,6,6,6,6,6,6,6,6,6,6,6,6,6,6,6,6,6,6,6,6,6,6,6,6,6,6,6,6,6,6,6,6,7,7,7,7,7,7,7,7,7,7,7,7,7,7,7,7,7,7,7,7,7,7,7,7,7,7,7,7,7,7,7,7,7,7,7,7,7,7,7,7,7,7,7,7,7,7,8,8,8,8,8,8,8,8,8,8,8,8,8,8,8,8,8,8,8,8,8,8,8,8,8,8,8,8,8,8,8,8,8,8,8,8,8,8,8,8,8,8,8,8,8,9,9,9,9,9,9,9,9,9,9,9,9,9,9,9,9,9,9,9,9,9,9,9,9,9,9,9,9,9,9,9,9,9,9,9,9,9,9,9,9,9,9,9,9,9,9,9,9,9,9,9,9,9,9,9,9,9,10,10,10,10,10,10,10,10,10,10,10,10,10,10,10,10,10,10,10,10,11,11,11,11,11,11,11,11,11,11,11,11,11,11,11,11,11,11,11,11,11,11,11,11,11,11,11,11,11,11,11,11,11,12,12,12,12,12,12,12,12,12,12,12,12,12,12,12,12,12,12,12,12,12,12,12,12,12,12,12,12,12,12,12,12,12,12,12,12,12,12,12,12,12,12,12,12,12,12,12,12,12,12,12,12,13,13,13,13,13,13,13,13,13,13,13,13,13,13,13,13,13,13,13,13,13,13,13,13,13,13,13,13,13,13,13,13,13,13,13,13,13,13,13,13,13,13,13,13,13,13,13,13,13,13,13,14,14,14,14,14,14,14,14,14,14,14,14,14,14,14,14,14,14,14,14,14,14,14,14,14,14,14,14,14,14,14,14,14,14,14,14,14,14,14,14,14,14,14,14,14,14,14,14,14,14,14,14,14,15,15,15,15,15,15,15,15,15,15,15,15,15,15,15,15,15,15,15,15,15,15,15,15,15,15,15,15,15,15,15,15,15,15,15,15,15,15,15,15,15,15,15,15,15,15,15,15,15,15,15,15,15,15,15,15,15,15,16,16,16,16,16,16,16,16,16,16,16,16,16,16,16,16,16,16,16,16,16,16,16,16,16,16,16,16,16,16,16,16,16,16,16,16,16,16,16,16,16,16,16,17,17,17,17,17,17,17,17,17,17,17,17,17,17,17,17,17,17,17,17,17,17,17,17,17,17,17,17,17,17,17,17,17,17,17,17,17,17,17,17,17,17,17,17,17,17,17,17,17,17,17,17,17,17,17,17,17,17,17,17,17,17,17,17,17,18,18,18,18,18,18,18,18,18,18,18,18,18,18,18,18,18,18,18,18,18,18,18,18,18,18,18,18,18,18,18,18,18,18,19,19,19,19,19,19,19,19,19,19,19,19,19,19,19,19,19,19,19,19,19,19,19,19,19,19,19,19,19,19,19,19,19,19,19,19,19,19,19,19,19,19,19,19,19,19,19,19,19,19,19,19,20,20,20,20,20,20,20,20,20,20,20,20,20,20,20,20,20,20,20,20,20,20,20,20,20,20,20,20,20,20,20,20,20,20,20,20,20,20,20,20,20,20,20,20,20,20,20,20,20,20,20,20,20,20,20,20,20,20,20,20,20,20,20,20,20,21,21,21,21,21,21,21,21,21,21,21,21,21,21,21,21,21,21,21,21,21,21,21,21,21,21,21,21,21,21,21,21,21,21,21,21,21,21,21,21,21,21,21,21,21,21,21,21,21,21,21,21,21,21,21,21,21,21,21,21,21,21,22,22,22,22,22,22,22,22,22,22,22,22,22,22,22,22,22,22,22,22,22,22,22,22,22,22,22,22,22,22,22,22,22,22,22,22,22,22,22,23,23,23,23,23,23,23,23,23,23,23,23,23,23,23,23,23,23,23,23,23,23,23,23,23,23,23,23,23,23,23,23,23,23,23,23,23,23,23,23,23,23,23,23,23,23,23,23,23,23,23,23,23,23,23,23,23,23,23,23,23,23,23,24,24,24,24,24,24,24,24,24,24,24,24,24,24,24,24,24,24,24,24,24,24,24,24,24,24,24,24,24,24,24,24,24,24,24,24,25,25,25,25,25,25,25,25,25,25,25,25,25,25,25,25,25,25,25,25,25,25,25,25,25,25,25,25,25,25,25,25,25,25,25,25,25,25,25,25,25,25,25,25,25,25,25,25,25,25,25,25,25,25,25,25,25,26,26,26,26,26,26,26,26,26,26,26,26,26,26,26,26,26,26,26,26,26,26,26,26,26,26,26,26,26,26,26,26,26,26,26,26,26,26,26,26,26,26,26,26,26,26,26,26,26,26,26,26,26,26,27,27,27,27,27,27,27,27,27,27,27,27,27,27,27,27,27,27,27,27,27,27,27,27,27,27,27,27,27,27,27,27,27,27,27,27,27,27,27,27,27,27,27,27,27,27,28,28,28,28,28,28,28,28,28,28,28,28,28,28,28,28,28,28,28,28,28,28,28,28,28,28,28,28,28,28,28,28,28,28,28,28,28,28,28,28,28,28,28,28,28,28,28,28,28,28,28,29,29,29,29,29,29,29,29,29,29,29,29,29,29,29,29,29,29,29,29,29,29,29,29,29,29,29,29,29,29,29,29,29,29,29,29,29,29,29,29,29,29,29,29,29,29,29,29,29,29,29,29,29,30,30,30,30,30,30,30,30,30,30,30,30,30,30,30,30,30,30,30,30,30,30,30,30,30,30,30,30,30,30,30,30,30,30,30,30,31,31,31,31,31,31,31,31,31,31,31,31,31,31,31,31,31,31,31,31,31,31,31,31,31,31,31,31,31,31,31,31,31,31,31,31,31,31,31,31,31,31,31,31,31,31,31,31,31,31,32,32,32,32,32,32,32,32,32,32,32,32,32,32,32,32,32,32,32,32,32,32,32,32,32,32,32,32,32,32,32,32,32,32,32,32,32,32,32,32,32,32,32,32,32,32,33,33,33,33,33,33,33,33,33,33,33,33,33,33,33,33,33,33,33,33,33,33,33,33,33,33,33,33,33,33,33,33,33,33,33,33,34,34,34,34,34,34,34,34,34,34,34,34,34,34,34,34,34,34,34,34,34,34,34,34,34,34,34,34,34,34,34,34,34,34,34,34,35,35,35,35,35,35,35,35,35,35,35,35,35,35,35,35,35,35,35,35,35,35,35,35,35,35,35,35,35,35,35,35,35,35,35,36,36,36,36,36,36,36,36,36,36,36,36,36,36,36,36,36,36,36,36,36,36,36,36,36,36,36,36,36,36,36,36,36,36,36,36,36,36,36,36,36,36,36,36,36,36,36,36,36,36,36,36,36,37,37,37,37,37,37,37,37,37,37,37,37,37,37,37,37,37,37,37,37,37,37,37,37,37,37,37,37,37,37,37,37,37,37,38,38,38,38,38,38,38,38,38,38,38,38,38,38,38,38,38,38,38,38,38,38,38,38,38,38,38,38,38,38,38,38,38,38,38,38,38,38,38,38,38,38,38,38,38,38,38,38,39,39,39,39,39,39,39,39,39,39,39,39,39,39,39,39,39,39,39,39,39,39,39,39,39,39,39,39,39,39,39,39,39,39,39,39,39,39,39,39,39,39,39,39,39,39,39,39,40,40,40,40,40,40,40,40,40,40,40,40,40,40,40,40,40,40,40,40,40,40,40,40,40,40,40,40,40,40,40,40,40,40,40,40,40,40,40,40,40,40,40,40,41,41,41,41,41,41,41,41,41,41,41,41,41,41,41,41,41,41,41,41,41,41,41,41,41,41,41,41,41,41,41,41,41,41,41,42,42,42,42,42,42,42,42,42,42,42,42,42,42,42,42,42,42,42,42,42,42,42,42,42,42,42,42,42,42,42,42,42,42,42,42,42,42,43,43,43,43,43,43,43,43,43,43,43,43,43,43,43,43,43,43,43,43,43,43,43,43,43,43,43,43,43,43,43,43,43,43,43,43,43,43,43,43,43,43,43,44,44,44,44,44,44,44,44,44,44,44,44,44,44,44,44,44,44,44,44,44,44,44,44,44,44,44,44,44,45,45,45,45,45,45,45,45,45,45,45,45,45,45,45,45,45,45,45,45,45,45,45,45,45,45,45,45,46,46,46,46,46,46,46,46,46,46,46,46,46,46,46,46,46,46,46,46,46,46,46,46,46,46,46,46,46,47,47,47,47,47,47,47,47,47,47,47,47,47,47,47,47,47,47,47,47,47,47,47,47,47,47,47,47,47,47,48,48,48,48,48,48,48,48,48,48,48,48,48,48,48,48,48,48,48,48,48,48,48,48,48,48,48,48,48,48,48,48,48,48,48,48,49,49,49,49,49,49,49,49,49,49,49,49,49,49,49,49,49,49,49,49,49,49,49,49,49,49,49,49,49,49,49,49,49,49,49,49,49,50,50,50,50,50,50,50,50,50,50,50,50,50,50,50,50,50,50,50,50,50,50,50,50,50,50,50,50,50,50,50,50,50,50,50,50,50,51,51,51,51,51,51,51,51,51,51,51,51,51,51,51,51,51,51,51,51,51,51,51,51,51,52,52,52,52,52,52,52,52,52,52,52,52,52,52,52,52,52,52,52,52,52,53,53,53,53,53,53,53,53,53,53,53,53,53,53,53,53,53,53,53,53,53,53,53,53,53,53,53,53,53,53,54,54,54,54,54,54,54,54,54,54,54,54,54,54,54,54,54,54,54,54,54,54,54,54,54,54,54,54,54,54,54,54,54,55,55,55,55,55,55,55,55,55,55,55,55,55,55,55,55,55,55,55,56,56,56,56,56,56,56,56,56,56,56,56,56,56,56,56,56,56,56,56,56,56,56,56,56,56,56,56,56,56,56,56,56,57,57,57,57,57,57,57,57,57,57,57,57,57,57,57,57,57,57,57,57,57,57,57,58,58,58,58,58,58,58,58,58,58,58,58,58,58,58,58,58,58,58,59,59,59,59,59,59,59,59,59,59,59,59,59,59,59,59,59,59,59,59,59,59,59,59,59,59,59,59,59,60,60,60,60,60,60,60,60,60,60,60,60,60,60,60,60,61,61,61,61,61,61,61,61,61,61,61,61,61,61,61,61,61,61,61,61,61,61,61,61,61,62,62,62,62,62,62,62,62,62,62,62,62,62,62,62,62,62,62,62,62,62,62,62,63,63,63,63,63,63,63,63,63,63,63,63,63,63,63,63,63,63,63,63,63,63,63,63,63,63,64,64,64,64,64,64,64,64,64,64,64,64,64,64,64,64,64,64,64,64,64,64,65,65,65,65,65,65,65,65,65,65,65,65,65,65,65,66,66,66,66,66,66,66,66,66,66,66,66,66,66,66,66,66,66,66,66,66,66,67,67,67,67,67,67,67,67,67,67,67,67,67,67,68,68,68,68,68,68,68,68,68,68,68,68,68,68,68,68,68,68,68,68,69,69,69,69,69,69,69,69,69,70,70,70,70,70,70,70,70,70,70,70,70,70,70,70,70,70,70,70,70,71,71,71,71,71,71,71,71,71,71,71,71,71,72,72,72,72,72,72,72,72,72,72,72,72,72,72,72,73,73,73,73,73,73,73,73,73,73,73,73,73,73,73,73,73,74,74,74,74,74,74,74,74,74,74,74,75,75,75,75,75,75,75,75,76,76,76,76,76,76,76,76,76,76,76,77,77,77,77,77,77,77,77,77,77,78,78,78,78,79,79,79,79,79,79,79,79,79,79,79,80,80,80,80,80,80,80,80,81,81,81,82,82,82,82,82,82,83,83,83,83,83,83,83,84,84,84,84,84,85,85,85,86,86,87,87,88,88,89,89,90];
unsucc = [3,4,5,6,7,8,9,10,11,12,13,15,17,18,20,22,23,24,25,26,29,32,33,35,36,37,38,40,41,42,44,46,48,52,53,54,55,58,60,61,64,65,67,70,71,4,14,16,19,21,27,51,57,5,6,7,8,9,10,11,12,13,14,15,16,17,18,19,20,21,22,23,24,25,26,27,28,29,30,31,32,33,34,35,36,37,38,39,40,41,42,43,44,45,46,47,48,49,50,51,52,53,54,55,56,57,58,59,60,62,63,64,65,66,67,68,69,70,71,72,73,74,75,76,78,79,80,81,82,83,84,86,90,91,6,9,14,16,19,21,27,40,51,57,7,8,9,10,11,12,13,14,15,16,17,18,19,20,21,22,23,24,25,26,27,28,29,30,31,33,34,35,36,37,38,41,43,44,45,46,47,50,51,52,53,54,55,57,58,59,60,61,62,64,65,66,67,69,71,74,75,76,77,78,80,81,84,85,86,87,8,9,10,11,13,14,16,17,18,19,20,21,22,23,24,26,27,28,29,30,31,33,34,35,36,37,40,43,44,45,47,50,51,52,55,57,58,59,60,61,62,64,65,66,67,78,9,10,11,12,14,16,17,18,19,20,21,22,23,24,26,27,28,29,31,32,33,35,36,37,40,41,42,44,48,51,52,53,55,57,58,59,60,61,62,64,65,66,67,71,78,10,11,12,13,14,15,16,17,18,19,20,21,22,23,24,25,26,27,28,29,30,31,32,34,35,36,37,39,40,41,42,44,45,46,48,49,51,52,53,54,55,56,57,58,59,62,63,64,66,68,71,73,74,76,78,79,91,12,13,14,15,16,19,21,25,27,30,32,34,40,41,45,46,49,51,53,57,12,13,14,15,16,17,19,21,22,25,27,30,32,33,34,36,38,40,41,43,44,45,46,49,51,53,55,57,60,61,65,67,72,13,14,16,17,18,19,20,21,22,23,24,26,27,28,29,30,31,32,33,34,35,36,37,40,41,42,43,44,45,47,48,50,51,52,53,55,56,57,58,59,60,61,62,63,64,65,66,67,71,74,76,78,14,15,16,17,18,19,20,21,22,23,24,25,26,27,28,29,31,32,33,35,36,37,38,39,40,41,42,44,46,48,49,51,52,53,54,55,57,58,59,60,61,62,64,65,66,67,68,70,71,73,78,15,16,17,18,20,22,23,24,25,26,29,30,32,33,34,35,36,37,38,40,41,42,43,44,45,46,47,48,50,51,52,53,54,55,56,57,58,60,61,62,63,64,65,66,67,69,70,71,75,77,78,80,84,16,17,18,19,20,21,22,23,24,25,26,27,28,29,30,31,32,33,34,35,36,37,39,40,41,42,43,44,45,47,48,50,51,52,53,54,55,56,57,58,59,60,61,62,63,64,65,66,67,68,70,71,73,74,76,78,79,91,17,18,19,20,21,22,23,24,25,26,27,28,29,31,32,33,35,36,37,38,39,40,41,42,44,46,48,49,52,53,54,55,58,60,61,62,64,65,67,68,70,71,72,18,19,20,21,22,23,24,25,26,27,28,29,30,31,32,33,34,35,36,37,38,39,40,41,42,43,44,45,46,47,48,49,50,51,52,53,54,55,56,57,58,59,60,61,62,63,65,67,68,69,70,71,72,73,74,75,77,78,79,81,82,83,85,90,91,19,20,21,22,23,25,27,28,30,31,32,33,34,36,38,39,40,41,43,44,45,46,49,50,51,53,55,57,59,60,61,65,67,72,20,21,22,23,24,25,26,29,30,32,33,34,35,36,37,38,40,41,42,43,44,45,46,47,48,50,51,52,53,54,55,56,57,58,60,61,62,63,64,65,66,67,69,70,71,75,77,78,80,81,84,85,21,22,24,25,26,27,28,29,30,31,32,33,34,35,36,37,38,39,40,41,42,43,44,45,46,47,48,49,51,52,53,54,55,56,57,58,59,60,61,62,63,64,65,66,67,68,69,70,71,72,73,74,75,76,77,78,79,81,82,83,85,86,87,90,91,22,23,24,25,26,27,28,29,30,31,32,33,34,35,36,37,38,39,40,41,42,43,44,45,46,47,48,49,50,51,52,53,54,55,56,57,58,59,60,61,62,63,64,65,66,67,68,69,70,71,72,73,74,75,76,77,78,79,80,84,85,91,23,24,25,26,27,28,29,30,31,32,34,35,37,39,40,41,42,45,46,47,48,49,51,52,53,54,56,57,58,59,62,64,66,68,71,73,74,76,78,24,25,26,27,28,29,30,31,32,33,34,35,36,37,38,39,40,41,42,43,44,45,46,47,48,49,51,52,53,54,55,56,57,58,59,60,61,62,63,64,65,66,67,68,69,70,71,72,73,74,75,76,77,78,79,81,82,83,85,86,87,90,91,25,26,27,28,30,31,32,33,34,36,38,39,40,41,43,44,45,46,49,50,51,52,53,55,57,58,59,60,61,62,64,65,66,67,72,78,26,27,28,29,30,31,32,33,34,35,36,37,38,40,41,42,43,44,45,46,47,48,49,50,51,52,53,55,56,57,58,59,60,61,62,63,64,65,66,67,69,71,72,74,75,76,77,78,80,81,82,83,84,85,86,87,88,27,28,29,30,31,32,33,34,35,36,37,38,39,40,41,42,43,44,45,46,47,48,49,50,51,52,53,54,55,56,57,58,59,60,61,62,63,64,65,67,68,69,70,71,72,73,74,76,77,78,79,80,85,91,29,30,32,33,34,35,36,37,38,40,41,42,43,44,45,46,47,48,50,51,52,53,54,55,56,57,58,60,61,62,63,64,65,66,67,69,70,71,74,75,77,78,80,81,84,85,29,30,32,33,34,35,36,37,38,40,41,42,43,44,45,46,47,48,49,50,51,52,53,54,55,56,57,58,60,61,62,63,64,65,66,67,69,70,71,72,74,75,77,78,80,81,82,83,84,85,90,30,31,32,33,34,35,36,37,38,39,40,41,42,43,44,45,46,47,48,49,50,51,52,53,55,56,57,58,59,60,61,62,63,64,65,66,67,68,69,71,72,73,74,75,76,77,78,80,81,82,83,84,85,31,32,33,35,36,37,38,39,40,41,42,44,46,48,49,51,52,53,54,55,57,58,59,60,61,62,64,65,66,67,68,70,71,72,73,78,32,33,34,35,36,37,38,40,41,42,43,44,45,46,47,48,49,50,51,52,53,54,55,56,57,58,59,60,61,62,63,64,65,66,67,69,70,71,72,74,75,77,78,80,81,82,83,84,85,90,33,34,35,36,37,38,40,41,43,44,45,46,47,49,50,51,52,53,54,55,57,58,59,60,61,62,64,65,66,67,69,71,72,74,75,76,77,78,80,81,82,84,85,86,87,88,34,35,36,37,39,40,41,42,44,45,46,47,48,49,51,52,53,54,55,56,57,58,59,62,63,64,66,68,69,71,73,74,76,78,79,91,35,36,37,38,39,40,41,42,44,46,48,49,51,52,53,54,55,57,58,59,60,61,62,63,64,65,66,67,68,70,71,72,73,78,79,91,36,38,39,40,41,42,43,44,45,46,48,49,50,51,52,53,54,55,56,57,58,59,60,61,62,63,64,65,66,67,68,70,72,78,79,37,38,39,40,41,42,43,44,45,46,47,48,49,50,51,52,53,54,55,56,57,58,59,60,61,62,63,64,65,66,67,68,69,70,71,72,73,74,75,76,77,78,79,80,81,82,84,85,86,87,88,90,91,38,39,40,41,42,43,44,45,46,48,49,50,51,52,53,54,55,56,57,58,59,60,61,62,63,64,65,66,67,68,70,72,78,79,39,40,41,42,43,44,45,46,47,48,49,50,51,52,53,54,55,56,57,58,59,60,61,62,63,64,65,66,67,68,69,70,71,73,74,75,76,77,78,79,80,81,84,85,86,87,88,91,40,41,42,43,44,45,46,47,48,49,50,51,52,53,54,55,56,57,58,59,60,61,62,63,64,65,66,67,69,70,71,72,74,75,76,77,78,80,81,82,83,84,85,86,87,88,89,90,41,42,43,44,45,46,47,48,50,51,52,53,54,55,57,58,59,60,61,62,63,64,65,66,67,68,69,70,71,73,74,75,76,77,78,79,80,81,84,85,86,87,88,91,42,43,44,45,46,47,48,49,50,51,52,54,55,56,57,58,59,60,61,62,63,64,65,66,67,69,70,72,75,77,78,80,81,84,85,43,44,45,46,47,49,50,51,52,53,54,55,57,58,59,60,61,62,64,65,66,67,69,71,72,74,75,76,77,78,80,81,82,84,85,86,87,88,44,45,46,47,48,49,51,52,53,54,55,56,57,58,59,60,61,62,63,64,65,66,67,68,69,70,71,72,73,74,75,76,77,78,79,81,82,83,85,86,87,90,91,45,46,47,48,49,50,51,52,53,54,56,57,58,59,60,61,62,64,65,66,67,68,70,71,72,73,74,76,78,46,48,49,50,51,52,53,54,55,57,58,59,60,61,62,63,64,65,66,67,68,70,71,72,73,78,79,91,47,48,50,51,52,53,54,55,56,57,58,59,60,61,62,63,64,65,66,67,68,70,71,73,74,76,78,79,91,48,49,50,51,52,53,54,55,56,57,58,59,60,61,62,63,64,65,66,67,68,70,71,72,73,74,76,78,79,91,49,50,51,52,53,54,55,57,58,59,60,61,62,63,64,65,66,67,69,70,71,72,74,75,76,77,78,80,81,82,84,85,86,87,88,90,50,51,52,53,54,55,56,57,58,59,60,61,62,63,64,65,66,67,68,69,70,71,73,74,75,76,77,78,79,80,81,84,85,86,87,88,91,51,52,53,54,55,56,57,58,59,60,61,62,63,64,65,66,67,68,69,70,71,72,73,74,75,76,77,78,79,81,82,83,85,86,87,90,91,52,53,54,55,56,58,59,60,61,62,63,64,65,67,68,69,70,71,72,74,75,76,77,79,80,53,54,55,56,57,59,60,61,63,65,67,68,69,70,71,72,73,74,75,76,79,54,55,56,57,58,59,60,61,62,63,64,65,66,67,68,69,70,72,73,75,77,78,79,80,81,82,83,84,85,91,55,56,57,58,59,60,61,62,63,64,65,66,67,68,69,71,72,73,74,75,76,77,78,80,81,82,83,84,85,86,87,88,89,56,57,58,59,60,61,62,64,65,66,67,68,70,71,72,73,74,76,78,57,58,59,60,61,62,63,64,65,66,67,68,69,70,71,72,73,74,75,76,77,78,79,80,81,82,84,85,86,87,88,90,91,58,59,60,61,62,63,64,65,66,67,68,69,70,71,72,73,74,75,76,77,79,80,91,59,60,61,63,64,65,66,67,68,69,70,71,72,73,74,75,76,79,80,60,61,62,63,64,65,66,67,68,69,70,71,72,73,74,75,76,77,78,79,80,81,82,83,84,85,86,90,91,62,63,64,66,68,69,71,72,73,74,76,78,79,80,84,91,62,63,64,65,66,67,68,69,70,71,72,73,74,75,76,78,79,80,81,82,83,84,86,90,91,63,64,65,66,67,68,69,70,71,72,73,74,75,76,78,79,80,81,82,83,84,86,90,64,65,66,67,68,69,70,71,72,73,74,75,76,77,78,80,81,82,83,84,85,86,87,88,89,90,65,67,68,69,70,71,72,73,74,75,76,77,78,79,81,82,83,85,86,87,90,91,66,68,69,71,72,73,74,76,77,78,79,80,84,85,91,67,68,69,70,71,72,73,74,75,76,77,78,79,80,81,82,83,85,86,87,90,91,68,69,71,72,73,74,76,77,78,79,80,84,85,91,69,70,71,72,74,75,76,77,78,80,81,82,83,84,85,86,87,88,89,90,70,71,72,73,74,76,78,79,91,71,72,73,74,75,76,77,78,79,80,81,82,83,84,85,86,87,88,89,91,72,73,75,77,78,79,80,81,82,83,84,85,91,73,74,75,76,77,78,79,80,81,84,85,86,87,88,91,74,75,76,77,78,79,80,81,82,83,84,85,86,87,88,89,90,75,77,78,79,80,81,82,83,84,85,91,76,77,78,79,80,84,85,91,77,78,79,80,81,82,83,84,85,90,91,78,79,80,81,82,83,84,86,90,91,79,80,85,91,80,81,82,83,84,85,86,87,88,89,90,81,82,83,85,86,87,90,91,84,85,91,84,85,86,87,88,91,84,85,86,87,88,90,91,85,86,87,90,91,86,90,91,90,91,90,91,90,91,90,91,91];

USEFUL_RES = [{},
	{1,2,3,4,5,8,10,11,12,14,15,20,23},
	{1,3,7,8,9,10,11,12,14,15,16,17,19,20,21,23,24},
	{2,4,5,6,13,22,23},
	{3,7,9,10,12,14,15,16,17,19,20,23},
	{2,4,5,23},
	{1,2,3,4,5,10,11,14,15,18,20,22,23},
	{1,8,10,11},
	{1,2,4,5,6,10,11,13,18,22,23},
	{3,7,9,10,12,14,15,16,17,19,20,22,23},
	{1,3,7,8,9,10,11,12,14,15,16,17,19,20,23},
	{6,7,9,13,16,17,19,22,23},
	{1,3,6,7,8,9,10,11,12,13,14,15,16,17,19,20,22,23},
	{3,10,14,15,20},
	{3,7,9,10,14,15,16,17,19,20,23},
	{2,3,4,5,6,7,9,10,12,13,14,15,16,17,19,20,21,22,23,24},
	{1,2,3,4,5,8,10,11,12,14,15,18,20,23},
	{2,4,5,7,9,16,17,18,19,23},
	{1,3,7,8,9,10,11,14,15,16,17,19,20,23},
	{3,10,12,14,15,20,21,22,23,24},
	{3,7,9,10,12,14,15,16,17,19,20,23},
	{22},
	{1,3,8,10,11,12,14,15,20,23},
	{1,3,8,10,11,12,14,15,20,23},
	{2,4,5,7,9,16,17,18,19,23},
	{1,3,7,8,10,11,12,14,15,16,19,20,21,23,24},
	{1,2,3,4,5,7,8,9,10,11,14,15,16,17,19,20,23},
	{1,8,10,11},
	{1,3,6,7,8,9,10,11,12,14,15,16,17,19,20,22,23},
	{3,10,14,15,20},
	{1,2,3,4,5,6,7,8,9,10,11,14,15,16,17,19,20,22,23},
	{1,2,3,4,5,6,7,8,9,10,11,12,13,14,15,16,17,18,19,20,22,23},
	{1,2,4,5,6,8,10,11,22,23},
	{1,2,3,4,5,6,7,8,9,10,11,12,14,15,16,17,18,19,20,22,23},
	{1,2,3,4,5,7,8,9,10,11,12,14,15,16,17,18,19,20,21,23,24},
	{2,4,5,22,23},
	{2,4,5,6,7,9,13,16,17,19,22,23},
	{3,6,7,9,10,12,14,15,16,17,19,20,21,22,23,24},
	{2,3,4,5,7,9,10,12,14,15,16,17,18,19,20,21,23,24},
	{2,3,4,5,6,10,13,14,15,20,22,23},
	{3,10,12,14,15,20,23},
	{1,6,8,10,11,22},
	{1,3,6,7,8,9,10,11,13,14,15,16,17,19,20,22,23},
	{3,7,10,12,14,15,16,19,20,23},
	{3,7,9,10,14,15,16,17,19,20,23},
	{1,3,8,10,11,14,15,20},
	{6,7,9,13,16,17,19,22,23},
	{1,2,3,4,5,7,8,9,10,11,12,14,15,16,17,18,19,20,21,23,24},
	{2,4,5,23},
	{3,10,12,14,15,20,23},
	{2,3,4,5,6,10,12,14,15,20,21,22,23,24},
	{3,7,9,10,12,14,15,16,17,19,20,23},
	{1,2,3,4,5,7,8,9,10,11,12,14,15,16,17,19,20,21,23,24},
	{1,2,3,4,5,6,7,8,9,10,11,13,14,15,16,17,19,20,22,23},
	{1,10,11,19},
	{1,2,3,4,5,6,7,8,9,10,11,12,13,14,15,16,17,18,19,20,22,23},
	{1,8,10,11},
	{1,2,4,5,8,10,11,18,23},
	{1,8,10,11},
	{1,3,7,8,9,10,11,14,15,16,17,19,20,23},
	{2,3,4,5,6,7,9,10,13,14,15,16,17,19,20,22,23},
	{2,3,4,5,6,7,9,10,12,13,14,15,16,17,18,19,20,21,22,23,24},
	{1,3,6,7,8,10,11,12,13,14,15,16,19,20,22,23},
	{1,2,3,4,5,6,8,10,11,12,13,14,15,20,22,23},
	{2,3,4,5,10,14,15,20,23},
	{1,2,3,4,5,7,8,9,10,11,14,15,16,17,18,19,20,23},
	{1,2,3,4,5,8,10,11,12,14,15,18,20,21,23,24},
	{2,4,5,6,7,13,16,19,22,23},
	{1,8,10,11},
	{6,7,9,16,17,19,22,23},
	{2,3,4,5,6,7,9,10,12,13,14,15,16,17,19,20,22,23},
	{1,2,3,4,5,8,10,11,12,14,15,18,20,21,23,24},
	{1,3,8,10,11,12,14,15,20,23},
	{3,7,9,10,12,14,15,16,17,19,20,21,23,24},
	{1,2,3,4,5,6,8,10,11,12,13,14,15,20,21,22,23,24},
	{1,2,4,5,8,10,11,18,23},
	{7,9,16,17,19,23},
	{2,4,5,6,13,18,22,23},
	{1,3,6,7,8,9,10,11,12,13,14,15,16,17,19,20,21,22,23,24},
	{2,3,4,5,7,9,10,12,14,15,16,17,19,20,23},
	{2,3,4,5,6,10,12,13,14,15,18,20,21,22,23,24},
	{2,3,4,5,6,7,9,10,12,13,14,15,16,17,18,19,20,22,23},
	{2,3,4,5,10,12,14,15,20,23},
	{1,2,3,4,5,8,10,11,12,14,15,20,23},
	{7,16,19},
	{1,6,7,8,9,10,11,13,16,17,19,22,23},
	{1,2,4,5,6,7,8,9,10,11,13,16,17,19,22,23},
	{1,2,4,5,7,8,9,10,11,16,17,19,23},
	{3,6,7,9,10,12,13,14,15,16,17,19,20,21,22,23,24},
	{1,3,8,10,11,12,14,15,20,23},
	{1,2,3,4,5,8,10,11,14,15,20,23},
	{}];

POTENTIAL_ACT = [{2,3,7,8,9,11,13,17,19,23,24,26,27,28,29,31,32,33,34,35,42,43,46,48,53,54,55,56,57,58,59,60,63,64,66,67,69,72,73,75,76,79,84,86,87,88,90,91},
	{2,4,6,7,9,16,17,18,25,27,31,32,33,34,35,36,37,39,40,48,49,51,53,54,56,58,61,62,64,65,66,67,68,71,72,75,76,78,80,81,82,83,84,87,88,91},
	{2,3,5,7,10,11,13,14,15,16,17,19,20,21,23,24,26,27,29,30,31,32,34,35,38,39,40,41,43,44,45,46,48,50,51,52,53,54,56,60,61,62,63,64,65,66,67,71,72,73,74,75,79,80,81,82,83,84,89,90,91},
	{2,4,6,7,9,16,17,18,25,27,31,32,33,34,35,36,37,39,40,48,49,51,53,54,56,58,61,62,64,65,66,67,68,71,72,75,76,78,80,81,82,83,84,87,88,91},
	{2,4,6,7,9,16,17,18,25,27,31,32,33,34,35,36,37,39,40,48,49,51,53,54,56,58,61,62,64,65,66,67,68,71,72,75,76,78,80,81,82,83,84,87,88,91},
	{4,9,12,13,16,29,31,32,33,34,37,38,40,42,43,47,51,54,56,61,62,63,64,68,70,71,75,78,79,81,82,86,87,89},
	{3,5,10,11,12,13,15,16,18,19,21,25,26,27,29,31,32,34,35,37,38,39,43,44,45,47,48,52,53,54,56,60,61,62,63,66,68,70,71,74,77,79,80,82,85,86,87,88,89},
	{2,3,8,11,13,17,19,23,24,26,27,28,29,31,32,33,34,35,42,43,46,48,53,54,56,57,58,59,60,63,64,66,67,69,72,73,75,76,79,84,86,87,88,90,91},
	{3,5,10,11,12,13,15,16,18,19,21,25,27,29,31,32,34,35,37,38,39,43,45,47,48,52,53,54,56,60,61,62,66,70,71,74,77,79,80,82,86,87,88,89},
	{2,3,5,7,8,9,10,11,13,14,15,16,17,19,20,21,23,24,26,27,28,29,30,31,32,33,34,35,38,39,40,41,42,43,44,45,46,48,50,51,52,53,54,55,56,57,58,59,60,61,62,63,64,65,66,67,69,71,72,73,74,75,76,79,80,81,82,83,84,86,87,88,89,90,91},
	{2,3,7,8,9,11,13,17,19,23,24,26,27,28,29,31,32,33,34,35,42,43,46,48,53,54,55,56,57,58,59,60,63,64,66,67,69,72,73,75,76,79,84,86,87,88,90,91},
	{2,3,5,10,11,13,16,17,20,21,23,24,26,29,32,34,35,38,39,41,44,48,50,51,52,53,56,62,63,64,67,71,72,73,74,75,79,80,81,82,83,84,89,90},
	{4,9,12,13,16,32,37,40,43,47,54,56,61,62,63,64,68,71,75,78,79,81,82,86,87,89},
	{2,3,5,7,10,11,13,14,15,16,17,19,20,21,23,24,26,27,29,30,31,32,34,35,38,39,40,41,43,44,45,46,48,50,51,52,53,54,56,60,61,62,63,64,65,66,67,71,72,73,74,75,79,80,81,82,83,84,89,90,91},
	{2,3,5,7,10,11,13,14,15,16,17,19,20,21,23,24,26,27,29,30,31,32,34,35,38,39,40,41,43,44,45,46,48,50,51,52,53,54,56,60,61,62,63,64,65,66,67,71,72,73,74,75,79,80,81,82,83,84,89,90,91},
	{3,5,10,11,12,13,15,16,18,19,21,25,26,27,29,31,32,34,35,37,38,39,43,44,45,47,48,52,53,54,56,60,61,62,63,66,68,70,71,74,77,79,80,82,85,86,87,88,89},
	{3,5,10,11,12,13,15,16,18,19,21,25,27,29,31,32,34,35,37,38,39,43,45,47,48,52,53,54,56,60,61,62,66,70,71,74,77,79,80,82,86,87,88,89},
	{7,9,17,18,25,32,34,35,39,48,56,58,62,66,67,72,76,78,81,82},
	{3,5,10,11,12,13,15,16,18,19,21,25,26,27,29,31,32,34,35,37,38,39,43,44,45,47,48,52,53,54,55,56,60,61,62,63,66,68,70,71,74,77,79,80,82,85,86,87,88,89},
	{2,3,5,7,10,11,13,14,15,16,17,19,20,21,23,24,26,27,29,30,31,32,34,35,38,39,40,41,43,44,45,46,48,50,51,52,53,54,56,60,61,62,63,64,65,66,67,71,72,73,74,75,79,80,81,82,83,84,89,90,91},
	{3,16,20,26,35,38,39,48,51,53,62,67,72,74,75,79,81,89},
	{4,7,9,10,12,13,16,20,22,29,31,32,33,34,36,37,38,40,42,43,47,51,54,56,61,62,63,64,68,70,71,75,78,79,81,82,86,87,89},
	{2,3,4,5,6,7,9,10,11,12,13,15,16,17,18,19,20,21,23,24,25,26,27,29,31,32,33,34,35,36,37,38,39,40,41,43,44,45,47,48,49,50,51,52,53,54,56,58,60,61,62,63,64,65,66,67,68,70,71,72,73,74,75,76,77,78,79,80,81,82,83,84,86,87,88,89,90,91},
	{3,16,20,26,35,38,39,48,51,53,62,67,72,74,75,79,81,89}];
